c description: Tseitin formula on , with even charge
c generator: CNFgen (0.9.0)
c copyright: (C) 2012-2020 Massimo Lauria <massimo.lauria@uniroma1.it>
c url: https://massimolauria.net/cnfgen
c
p cnf 40 243
1 2 3 4 -5 0
1 2 3 -4 5 0
1 2 -3 4 5 0
1 2 -3 -4 -5 0
1 -2 3 4 5 0
1 -2 3 -4 -5 0
1 -2 -3 4 -5 0
1 -2 -3 -4 5 0
-1 2 3 4 5 0
-1 2 3 -4 -5 0
-1 2 -3 4 -5 0
-1 2 -3 -4 5 0
-1 -2 3 4 -5 0
-1 -2 3 -4 5 0
-1 -2 -3 4 5 0
-1 -2 -3 -4 -5 0
6 7 8 9 10 -11 0
6 7 8 9 -10 11 0
6 7 8 -9 10 11 0
6 7 8 -9 -10 -11 0
6 7 -8 9 10 11 0
6 7 -8 9 -10 -11 0
6 7 -8 -9 10 -11 0
6 7 -8 -9 -10 11 0
6 -7 8 9 10 11 0
6 -7 8 9 -10 -11 0
6 -7 8 -9 10 -11 0
6 -7 8 -9 -10 11 0
6 -7 -8 9 10 -11 0
6 -7 -8 9 -10 11 0
6 -7 -8 -9 10 11 0
6 -7 -8 -9 -10 -11 0
-6 7 8 9 10 11 0
-6 7 8 9 -10 -11 0
-6 7 8 -9 10 -11 0
-6 7 8 -9 -10 11 0
-6 7 -8 9 10 -11 0
-6 7 -8 9 -10 11 0
-6 7 -8 -9 10 11 0
-6 7 -8 -9 -10 -11 0
-6 -7 8 9 10 -11 0
-6 -7 8 9 -10 11 0
-6 -7 8 -9 10 11 0
-6 -7 8 -9 -10 -11 0
-6 -7 -8 9 10 11 0
-6 -7 -8 9 -10 -11 0
-6 -7 -8 -9 10 -11 0
-6 -7 -8 -9 -10 11 0
6 -12 0
-6 12 0
13 14 -15 0
13 -14 15 0
-13 14 15 0
-13 -14 -15 0
13 16 -17 0
13 -16 17 0
-13 16 17 0
-13 -16 -17 0
18 19 20 -21 0
18 19 -20 21 0
18 -19 20 21 0
18 -19 -20 -21 0
-18 19 20 21 0
-18 19 -20 -21 0
-18 -19 20 -21 0
-18 -19 -20 21 0
1 7 22 23 -24 0
1 7 22 -23 24 0
1 7 -22 23 24 0
1 7 -22 -23 -24 0
1 -7 22 23 24 0
1 -7 22 -23 -24 0
1 -7 -22 23 -24 0
1 -7 -22 -23 24 0
-1 7 22 23 24 0
-1 7 22 -23 -24 0
-1 7 -22 23 -24 0
-1 7 -22 -23 24 0
-1 -7 22 23 -24 0
-1 -7 22 -23 24 0
-1 -7 -22 23 24 0
-1 -7 -22 -23 -24 0
8 18 25 26 27 -28 0
8 18 25 26 -27 28 0
8 18 25 -26 27 28 0
8 18 25 -26 -27 -28 0
8 18 -25 26 27 28 0
8 18 -25 26 -27 -28 0
8 18 -25 -26 27 -28 0
8 18 -25 -26 -27 28 0
8 -18 25 26 27 28 0
8 -18 25 26 -27 -28 0
8 -18 25 -26 27 -28 0
8 -18 25 -26 -27 28 0
8 -18 -25 26 27 -28 0
8 -18 -25 26 -27 28 0
8 -18 -25 -26 27 28 0
8 -18 -25 -26 -27 -28 0
-8 18 25 26 27 28 0
-8 18 25 26 -27 -28 0
-8 18 25 -26 27 -28 0
-8 18 25 -26 -27 28 0
-8 18 -25 26 27 -28 0
-8 18 -25 26 -27 28 0
-8 18 -25 -26 27 28 0
-8 18 -25 -26 -27 -28 0
-8 -18 25 26 27 -28 0
-8 -18 25 26 -27 28 0
-8 -18 25 -26 27 28 0
-8 -18 25 -26 -27 -28 0
-8 -18 -25 26 27 28 0
-8 -18 -25 26 -27 -28 0
-8 -18 -25 -26 27 -28 0
-8 -18 -25 -26 -27 28 0
25 29 30 -31 0
25 29 -30 31 0
25 -29 30 31 0
25 -29 -30 -31 0
-25 29 30 31 0
-25 29 -30 -31 0
-25 -29 30 -31 0
-25 -29 -30 31 0
-2 0
3 -32 0
-3 32 0
9 16 26 -33 0
9 16 -26 33 0
9 -16 26 33 0
9 -16 -26 -33 0
-9 16 26 33 0
-9 16 -26 -33 0
-9 -16 26 -33 0
-9 -16 -26 33 0
12 -34 0
-12 34 0
10 22 35 36 -37 0
10 22 35 -36 37 0
10 22 -35 36 37 0
10 22 -35 -36 -37 0
10 -22 35 36 37 0
10 -22 35 -36 -37 0
10 -22 -35 36 -37 0
10 -22 -35 -36 37 0
-10 22 35 36 37 0
-10 22 35 -36 -37 0
-10 22 -35 36 -37 0
-10 22 -35 -36 37 0
-10 -22 35 36 -37 0
-10 -22 35 -36 37 0
-10 -22 -35 36 37 0
-10 -22 -35 -36 -37 0
11 14 29 38 -39 0
11 14 29 -38 39 0
11 14 -29 38 39 0
11 14 -29 -38 -39 0
11 -14 29 38 39 0
11 -14 29 -38 -39 0
11 -14 -29 38 -39 0
11 -14 -29 -38 39 0
-11 14 29 38 39 0
-11 14 29 -38 -39 0
-11 14 -29 38 -39 0
-11 14 -29 -38 39 0
-11 -14 29 38 -39 0
-11 -14 29 -38 39 0
-11 -14 -29 38 39 0
-11 -14 -29 -38 -39 0
15 30 33 -34 0
15 30 -33 34 0
15 -30 33 34 0
15 -30 -33 -34 0
-15 30 33 34 0
-15 30 -33 -34 0
-15 -30 33 -34 0
-15 -30 -33 34 0
4 19 27 35 38 -40 0
4 19 27 35 -38 40 0
4 19 27 -35 38 40 0
4 19 27 -35 -38 -40 0
4 19 -27 35 38 40 0
4 19 -27 35 -38 -40 0
4 19 -27 -35 38 -40 0
4 19 -27 -35 -38 40 0
4 -19 27 35 38 40 0
4 -19 27 35 -38 -40 0
4 -19 27 -35 38 -40 0
4 -19 27 -35 -38 40 0
4 -19 -27 35 38 -40 0
4 -19 -27 35 -38 40 0
4 -19 -27 -35 38 40 0
4 -19 -27 -35 -38 -40 0
-4 19 27 35 38 40 0
-4 19 27 35 -38 -40 0
-4 19 27 -35 38 -40 0
-4 19 27 -35 -38 40 0
-4 19 -27 35 38 -40 0
-4 19 -27 35 -38 40 0
-4 19 -27 -35 38 40 0
-4 19 -27 -35 -38 -40 0
-4 -19 27 35 38 -40 0
-4 -19 27 35 -38 40 0
-4 -19 27 -35 38 40 0
-4 -19 27 -35 -38 -40 0
-4 -19 -27 35 38 40 0
-4 -19 -27 35 -38 -40 0
-4 -19 -27 -35 38 -40 0
-4 -19 -27 -35 -38 40 0
5 23 31 32 -40 0
5 23 31 -32 40 0
5 23 -31 32 40 0
5 23 -31 -32 -40 0
5 -23 31 32 40 0
5 -23 31 -32 -40 0
5 -23 -31 32 -40 0
5 -23 -31 -32 40 0
-5 23 31 32 40 0
-5 23 31 -32 -40 0
-5 23 -31 32 -40 0
-5 23 -31 -32 40 0
-5 -23 31 32 -40 0
-5 -23 31 -32 40 0
-5 -23 -31 32 40 0
-5 -23 -31 -32 -40 0
17 20 28 36 -39 0
17 20 28 -36 39 0
17 20 -28 36 39 0
17 20 -28 -36 -39 0
17 -20 28 36 39 0
17 -20 28 -36 -39 0
17 -20 -28 36 -39 0
17 -20 -28 -36 39 0
-17 20 28 36 39 0
-17 20 28 -36 -39 0
-17 20 -28 36 -39 0
-17 20 -28 -36 39 0
-17 -20 28 36 -39 0
-17 -20 28 -36 39 0
-17 -20 -28 36 39 0
-17 -20 -28 -36 -39 0
21 24 -37 0
21 -24 37 0
-21 24 37 0
-21 -24 -37 0